\ This file has been generated by DOcplex
\ ENCODING=ISO-8859-1
\Problem name: CPLEX

Minimize
 obj: 11 b_0 - 6 i_0 + 9 f_0 + 11 f_1 -10
Subject To
 lin_eq_0: - 10 b_0 <= 0
 lin_eq_1: b_0 <= 0

Bounds
 0 <= b_0 <= 1
 1 <= i_0 <= 60
 4 <= f_0 <= 91
 5 <= f_1 <= 65

Binaries
 b_0

Generals
 i_0
End
